NAME : X-n331-k15
COMMENT : "Generated by Uchoa, Pecin, Pessoa, Poggi, Subramanian, and Vidal (2013)"
TYPE : CVRP
DIMENSION : 331
EDGE_WEIGHT_TYPE : EUC_2D
EDGE_WEIGHT_FORMAT : 
CAPACITY : 23
DISTANCE : 1.79769e+308
SERVICE_TIME : 0
NODE_COORD_SECTION
1 0 0
2 2 857
3 407 102
4 915 965
5 797 45
6 997 241
7 650 683
8 748 248
9 99 174
10 2 545
11 277 689
12 568 771
13 76 105
14 117 973
15 171 971
16 327 183
17 277 697
18 269 246
19 670 18
20 51 901
21 951 696
22 710 102
23 61 465
24 348 606
25 551 243
26 524 793
27 89 582
28 900 748
29 235 368
30 122 587
31 449 781
32 970 38
33 362 490
34 742 267
35 289 115
36 898 957
37 996 922
38 951 633
39 713 779
40 603 247
41 402 363
42 143 0
43 274 608
44 81 422
45 550 408
46 43 699
47 482 575
48 909 254
49 613 37
50 202 575
51 297 297
52 736 288
53 464 127
54 499 491
55 635 531
56 796 328
57 184 941
58 641 824
59 863 673
60 396 950
61 555 631
62 664 966
63 301 260
64 425 990
65 559 746
66 431 827
67 724 472
68 847 51
69 888 721
70 136 331
71 859 627
72 206 5
73 429 381
74 798 918
75 886 684
76 123 488
77 779 445
78 764 43
79 938 743
80 800 398
81 734 20
82 211 678
83 601 545
84 512 403
85 796 106
86 644 810
87 416 973
88 115 435
89 667 91
90 395 941
91 374 546
92 546 191
93 754 255
94 124 588
95 423 929
96 314 637
97 668 268
98 321 786
99 960 423
100 11 499
101 721 692
102 803 584
103 337 475
104 806 773
105 429 478
106 214 547
107 361 166
108 944 218
109 12 468
110 527 255
111 789 724
112 250 862
113 892 896
114 545 806
115 832 12
116 628 495
117 194 884
118 395 309
119 655 39
120 558 175
121 247 947
122 36 394
123 877 451
124 599 724
125 83 489
126 754 703
127 65 35
128 889 230
129 938 307
130 662 394
131 248 220
132 642 549
133 747 86
134 201 643
135 400 574
136 653 798
137 653 904
138 643 138
139 951 307
140 793 865
141 500 726
142 585 586
143 285 769
144 511 898
145 336 912
146 454 207
147 239 951
148 335 815
149 911 708
150 2 239
151 602 984
152 372 799
153 177 756
154 816 435
155 617 639
156 806 796
157 793 584
158 803 561
159 479 831
160 397 20
161 618 113
162 702 902
163 838 111
164 989 451
165 215 154
166 581 757
167 294 174
168 997 332
169 350 909
170 335 941
171 906 354
172 920 675
173 493 469
174 187 284
175 678 127
176 831 755
177 316 319
178 188 134
179 73 608
180 884 613
181 193 831
182 717 851
183 508 52
184 809 556
185 705 769
186 983 312
187 847 359
188 415 658
189 132 789
190 520 413
191 913 564
192 90 256
193 960 936
194 693 559
195 980 347
196 300 456
197 376 144
198 192 177
199 272 525
200 88 626
201 772 743
202 540 206
203 474 559
204 575 901
205 241 949
206 583 602
207 215 48
208 460 683
209 81 368
210 998 835
211 585 234
212 522 137
213 294 501
214 788 392
215 621 498
216 116 698
217 81 236
218 788 277
219 817 861
220 678 560
221 351 354
222 156 507
223 617 486
224 218 189
225 213 23
226 884 616
227 923 177
228 829 814
229 479 307
230 285 153
231 584 878
232 176 928
233 166 656
234 507 183
235 907 171
236 7 792
237 995 412
238 22 787
239 149 784
240 649 933
241 885 309
242 131 560
243 22 81
244 502 640
245 462 970
246 465 114
247 192 569
248 547 473
249 557 408
250 480 579
251 775 395
252 845 753
253 701 529
254 962 95
255 842 847
256 31 68
257 627 629
258 524 322
259 918 853
260 823 774
261 775 894
262 109 935
263 478 480
264 511 488
265 785 899
266 487 121
267 453 440
268 470 598
269 1 111
270 756 89
271 728 583
272 647 753
273 973 391
274 842 559
275 637 397
276 72 370
277 948 485
278 999 268
279 471 517
280 350 131
281 381 534
282 310 467
283 973 212
284 164 485
285 429 565
286 186 426
287 838 897
288 779 143
289 452 1
290 866 928
291 214 623
292 532 586
293 513 152
294 915 772
295 204 585
296 343 558
297 877 720
298 730 272
299 364 617
300 210 569
301 514 296
302 33 761
303 202 695
304 706 395
305 597 866
306 376 83
307 679 434
308 483 578
309 0 299
310 639 101
311 709 590
312 774 925
313 804 864
314 528 192
315 660 561
316 888 7
317 788 712
318 79 750
319 854 884
320 710 665
321 939 390
322 156 683
323 62 737
324 207 501
325 944 334
326 952 915
327 14 440
328 923 386
329 693 370
330 485 885
331 890 951
PICKUP_AND_DELIVERY_SECTION
1 0 0 0 0 0 0
2 0 0 0 0 0 1
3 0 0 0 0 1 0
4 0 0 0 0 0 1
5 0 0 0 0 1 0
6 0 0 0 0 0 1
7 0 0 0 0 1 0
8 0 0 0 0 0 1
9 0 0 0 0 1 0
10 0 0 0 0 0 1
11 0 0 0 0 1 0
12 0 0 0 0 0 1
13 0 0 0 0 1 0
14 0 0 0 0 0 1
15 0 0 0 0 1 0
16 0 0 0 0 0 1
17 0 0 0 0 1 0
18 0 0 0 0 0 1
19 0 0 0 0 1 0
20 0 0 0 0 0 1
21 0 0 0 0 1 0
22 0 0 0 0 0 1
23 0 0 0 0 1 0
24 0 0 0 0 0 1
25 0 0 0 0 1 0
26 0 0 0 0 0 1
27 0 0 0 0 1 0
28 0 0 0 0 0 1
29 0 0 0 0 1 0
30 0 0 0 0 0 1
31 0 0 0 0 1 0
32 0 0 0 0 0 1
33 0 0 0 0 1 0
34 0 0 0 0 0 1
35 0 0 0 0 1 0
36 0 0 0 0 0 1
37 0 0 0 0 1 0
38 0 0 0 0 0 1
39 0 0 0 0 1 0
40 0 0 0 0 0 1
41 0 0 0 0 1 0
42 0 0 0 0 0 1
43 0 0 0 0 1 0
44 0 0 0 0 0 1
45 0 0 0 0 1 0
46 0 0 0 0 0 1
47 0 0 0 0 1 0
48 0 0 0 0 0 1
49 0 0 0 0 1 0
50 0 0 0 0 0 1
51 0 0 0 0 1 0
52 0 0 0 0 0 1
53 0 0 0 0 1 0
54 0 0 0 0 0 1
55 0 0 0 0 1 0
56 0 0 0 0 0 1
57 0 0 0 0 1 0
58 0 0 0 0 0 1
59 0 0 0 0 1 0
60 0 0 0 0 0 1
61 0 0 0 0 1 0
62 0 0 0 0 0 1
63 0 0 0 0 1 0
64 0 0 0 0 0 1
65 0 0 0 0 1 0
66 0 0 0 0 0 1
67 0 0 0 0 1 0
68 0 0 0 0 0 1
69 0 0 0 0 1 0
70 0 0 0 0 0 1
71 0 0 0 0 1 0
72 0 0 0 0 0 1
73 0 0 0 0 1 0
74 0 0 0 0 0 1
75 0 0 0 0 1 0
76 0 0 0 0 0 1
77 0 0 0 0 1 0
78 0 0 0 0 0 1
79 0 0 0 0 1 0
80 0 0 0 0 0 1
81 0 0 0 0 1 0
82 0 0 0 0 0 1
83 0 0 0 0 1 0
84 0 0 0 0 0 1
85 0 0 0 0 1 0
86 0 0 0 0 0 1
87 0 0 0 0 1 0
88 0 0 0 0 0 1
89 0 0 0 0 1 0
90 0 0 0 0 0 1
91 0 0 0 0 1 0
92 0 0 0 0 0 1
93 0 0 0 0 1 0
94 0 0 0 0 0 1
95 0 0 0 0 1 0
96 0 0 0 0 0 1
97 0 0 0 0 1 0
98 0 0 0 0 0 1
99 0 0 0 0 1 0
100 0 0 0 0 0 1
101 0 0 0 0 1 0
102 0 0 0 0 0 1
103 0 0 0 0 1 0
104 0 0 0 0 0 1
105 0 0 0 0 1 0
106 0 0 0 0 0 1
107 0 0 0 0 1 0
108 0 0 0 0 0 1
109 0 0 0 0 1 0
110 0 0 0 0 0 1
111 0 0 0 0 1 0
112 0 0 0 0 0 1
113 0 0 0 0 1 0
114 0 0 0 0 0 1
115 0 0 0 0 1 0
116 0 0 0 0 0 1
117 0 0 0 0 1 0
118 0 0 0 0 0 1
119 0 0 0 0 1 0
120 0 0 0 0 0 1
121 0 0 0 0 1 0
122 0 0 0 0 0 1
123 0 0 0 0 1 0
124 0 0 0 0 0 1
125 0 0 0 0 1 0
126 0 0 0 0 0 1
127 0 0 0 0 1 0
128 0 0 0 0 0 1
129 0 0 0 0 1 0
130 0 0 0 0 0 1
131 0 0 0 0 1 0
132 0 0 0 0 0 1
133 0 0 0 0 1 0
134 0 0 0 0 0 1
135 0 0 0 0 1 0
136 0 0 0 0 0 1
137 0 0 0 0 1 0
138 0 0 0 0 0 1
139 0 0 0 0 1 0
140 0 0 0 0 0 1
141 0 0 0 0 1 0
142 0 0 0 0 0 1
143 0 0 0 0 1 0
144 0 0 0 0 0 1
145 0 0 0 0 1 0
146 0 0 0 0 0 1
147 0 0 0 0 1 0
148 0 0 0 0 0 1
149 0 0 0 0 1 0
150 0 0 0 0 0 1
151 0 0 0 0 1 0
152 0 0 0 0 0 1
153 0 0 0 0 1 0
154 0 0 0 0 0 1
155 0 0 0 0 1 0
156 0 0 0 0 0 1
157 0 0 0 0 1 0
158 0 0 0 0 0 1
159 0 0 0 0 1 0
160 0 0 0 0 0 1
161 0 0 0 0 1 0
162 0 0 0 0 0 1
163 0 0 0 0 1 0
164 0 0 0 0 0 1
165 0 0 0 0 1 0
166 0 0 0 0 0 1
167 0 0 0 0 1 0
168 0 0 0 0 0 1
169 0 0 0 0 1 0
170 0 0 0 0 0 1
171 0 0 0 0 1 0
172 0 0 0 0 0 1
173 0 0 0 0 1 0
174 0 0 0 0 0 1
175 0 0 0 0 1 0
176 0 0 0 0 0 1
177 0 0 0 0 1 0
178 0 0 0 0 0 1
179 0 0 0 0 1 0
180 0 0 0 0 0 1
181 0 0 0 0 1 0
182 0 0 0 0 0 1
183 0 0 0 0 1 0
184 0 0 0 0 0 1
185 0 0 0 0 1 0
186 0 0 0 0 0 1
187 0 0 0 0 1 0
188 0 0 0 0 0 1
189 0 0 0 0 1 0
190 0 0 0 0 0 1
191 0 0 0 0 1 0
192 0 0 0 0 0 1
193 0 0 0 0 1 0
194 0 0 0 0 0 1
195 0 0 0 0 1 0
196 0 0 0 0 0 1
197 0 0 0 0 1 0
198 0 0 0 0 0 1
199 0 0 0 0 1 0
200 0 0 0 0 0 1
201 0 0 0 0 1 0
202 0 0 0 0 0 1
203 0 0 0 0 1 0
204 0 0 0 0 0 1
205 0 0 0 0 1 0
206 0 0 0 0 0 1
207 0 0 0 0 1 0
208 0 0 0 0 0 1
209 0 0 0 0 1 0
210 0 0 0 0 0 1
211 0 0 0 0 1 0
212 0 0 0 0 0 1
213 0 0 0 0 1 0
214 0 0 0 0 0 1
215 0 0 0 0 1 0
216 0 0 0 0 0 1
217 0 0 0 0 1 0
218 0 0 0 0 0 1
219 0 0 0 0 1 0
220 0 0 0 0 0 1
221 0 0 0 0 1 0
222 0 0 0 0 0 1
223 0 0 0 0 1 0
224 0 0 0 0 0 1
225 0 0 0 0 1 0
226 0 0 0 0 0 1
227 0 0 0 0 1 0
228 0 0 0 0 0 1
229 0 0 0 0 1 0
230 0 0 0 0 0 1
231 0 0 0 0 1 0
232 0 0 0 0 0 1
233 0 0 0 0 1 0
234 0 0 0 0 0 1
235 0 0 0 0 1 0
236 0 0 0 0 0 1
237 0 0 0 0 1 0
238 0 0 0 0 0 1
239 0 0 0 0 1 0
240 0 0 0 0 0 1
241 0 0 0 0 1 0
242 0 0 0 0 0 1
243 0 0 0 0 1 0
244 0 0 0 0 0 1
245 0 0 0 0 1 0
246 0 0 0 0 0 1
247 0 0 0 0 1 0
248 0 0 0 0 0 1
249 0 0 0 0 1 0
250 0 0 0 0 0 1
251 0 0 0 0 1 0
252 0 0 0 0 0 1
253 0 0 0 0 1 0
254 0 0 0 0 0 1
255 0 0 0 0 1 0
256 0 0 0 0 0 1
257 0 0 0 0 1 0
258 0 0 0 0 0 1
259 0 0 0 0 1 0
260 0 0 0 0 0 1
261 0 0 0 0 1 0
262 0 0 0 0 0 1
263 0 0 0 0 1 0
264 0 0 0 0 0 1
265 0 0 0 0 1 0
266 0 0 0 0 0 1
267 0 0 0 0 1 0
268 0 0 0 0 0 1
269 0 0 0 0 1 0
270 0 0 0 0 0 1
271 0 0 0 0 1 0
272 0 0 0 0 0 1
273 0 0 0 0 1 0
274 0 0 0 0 0 1
275 0 0 0 0 1 0
276 0 0 0 0 0 1
277 0 0 0 0 1 0
278 0 0 0 0 0 1
279 0 0 0 0 1 0
280 0 0 0 0 0 1
281 0 0 0 0 1 0
282 0 0 0 0 0 1
283 0 0 0 0 1 0
284 0 0 0 0 0 1
285 0 0 0 0 1 0
286 0 0 0 0 0 1
287 0 0 0 0 1 0
288 0 0 0 0 0 1
289 0 0 0 0 1 0
290 0 0 0 0 0 1
291 0 0 0 0 1 0
292 0 0 0 0 0 1
293 0 0 0 0 1 0
294 0 0 0 0 0 1
295 0 0 0 0 1 0
296 0 0 0 0 0 1
297 0 0 0 0 1 0
298 0 0 0 0 0 1
299 0 0 0 0 1 0
300 0 0 0 0 0 1
301 0 0 0 0 1 0
302 0 0 0 0 0 1
303 0 0 0 0 1 0
304 0 0 0 0 0 1
305 0 0 0 0 1 0
306 0 0 0 0 0 1
307 0 0 0 0 1 0
308 0 0 0 0 0 1
309 0 0 0 0 1 0
310 0 0 0 0 0 1
311 0 0 0 0 1 0
312 0 0 0 0 0 1
313 0 0 0 0 1 0
314 0 0 0 0 0 1
315 0 0 0 0 1 0
316 0 0 0 0 0 1
317 0 0 0 0 1 0
318 0 0 0 0 0 1
319 0 0 0 0 1 0
320 0 0 0 0 0 1
321 0 0 0 0 1 0
322 0 0 0 0 0 1
323 0 0 0 0 1 0
324 0 0 0 0 0 1
325 0 0 0 0 1 0
326 0 0 0 0 0 1
327 0 0 0 0 1 0
328 0 0 0 0 0 1
329 0 0 0 0 1 0
330 0 0 0 0 0 1
331 0 0 0 0 1 0
